
Gurobi 9.1.1 (win64) logging started Sun Mar 13 20:04:09 2022

Changed value of parameter LogFile to ./Log/Pattern_Appro_solver_900_order_45_batch.log
   Prev:   Default: 
Gurobi Optimizer version 9.1.1 build v9.1.1rc0 (win64)
Thread count: 6 physical cores, 12 logical processors, using up to 12 threads
Optimize a model with 2575 rows, 18810 columns and 76005 nonzeros
Model fingerprint: 0x677c792e
Variable types: 0 continuous, 18810 integer (15255 binary)
Coefficient statistics:
  Matrix range     [1e+00, 2e+01]
  Objective range  [1e+00, 4e+01]
  Bounds range     [1e+00, 5e+01]
  RHS range        [1e+00, 5e+01]
Found heuristic solution: objective 9489.0000000
Presolve removed 170 rows and 773 columns
Presolve time: 0.08s
Presolved: 2405 rows, 18037 columns, 71673 nonzeros
Variable types: 0 continuous, 18037 integer (14646 binary)

Root relaxation: objective 1.417274e+03, 11876 iterations, 0.32 seconds

    Nodes    |    Current Node    |     Objective Bounds      |     Work
 Expl Unexpl |  Obj  Depth IntInf | Incumbent    BestBd   Gap | It/Node Time

     0     0 1417.27427    0  423 9489.00000 1417.27427  85.1%     -    0s
H    0     0                    5932.0000000 1417.27427  76.1%     -    0s
H    0     0                    5820.0000000 1417.27427  75.6%     -    0s
H    0     0                    5666.0000000 1417.27427  75.0%     -    1s
H    0     0                    5513.0000000 1417.27427  74.3%     -    1s
H    0     0                    5357.0000000 1417.27427  73.5%     -    1s
H    0     0                    4904.0000000 1417.27427  71.1%     -    1s
     0     0 1466.83560    0  719 4904.00000 1466.83560  70.1%     -    1s
H    0     0                    4704.0000000 1466.83560  68.8%     -    2s
     0     0 1472.84170    0  761 4704.00000 1472.84170  68.7%     -    2s
     0     0 1473.00954    0  772 4704.00000 1473.00954  68.7%     -    2s
     0     0 1473.01004    0  773 4704.00000 1473.01004  68.7%     -    2s
H    0     0                    4394.0000000 1473.01004  66.5%     -    3s
H    0     0                    4329.0000000 1473.01004  66.0%     -    3s
     0     0 1527.01027    0  981 4329.00000 1527.01027  64.7%     -    3s
     0     0 1536.27432    0 1054 4329.00000 1536.27432  64.5%     -    4s
     0     0 1540.69050    0 1093 4329.00000 1540.69050  64.4%     -    4s
     0     0 1540.85313    0 1101 4329.00000 1540.85313  64.4%     -    4s
     0     0 1541.03808    0 1105 4329.00000 1541.03808  64.4%     -    4s
     0     0 1541.83875    0 1108 4329.00000 1541.83875  64.4%     -    4s
     0     0 1541.84259    0 1128 4329.00000 1541.84259  64.4%     -    5s
     0     0 1569.59728    0 1485 4329.00000 1569.59728  63.7%     -    7s
H    0     0                    4315.0000000 1569.59728  63.6%     -    7s
     0     0 1575.30338    0 1563 4315.00000 1575.30338  63.5%     -    9s
H    0     0                    4174.0000000 1575.30338  62.3%     -   10s
     0     0 1576.48780    0 1555 4174.00000 1576.48780  62.2%     -   10s
     0     0 1577.21803    0 1572 4174.00000 1577.21803  62.2%     -   11s
     0     0 1577.50649    0 1577 4174.00000 1577.50649  62.2%     -   11s
     0     0 1577.85717    0 1605 4174.00000 1577.85717  62.2%     -   12s
     0     0 1577.87807    0 1603 4174.00000 1577.87807  62.2%     -   12s
H    0     0                    4170.0000000 1577.87807  62.2%     -   16s
H    0     0                    4169.0000000 1577.87807  62.2%     -   16s
H    0     0                    4161.0000000 1577.87807  62.1%     -   16s
H    0     0                    4130.0000000 1577.87807  61.8%     -   16s
H    0     0                    4086.0000000 1577.87807  61.4%     -   16s
     0     0 1592.03688    0 1826 4086.00000 1592.03688  61.0%     -   16s
H    0     0                    4068.0000000 1592.03688  60.9%     -   19s
     0     0 1594.65524    0 1909 4068.00000 1594.65524  60.8%     -   19s
H    0     0                    4037.0000000 1594.65524  60.5%     -   21s
     0     0 1595.59405    0 1983 4037.00000 1595.59405  60.5%     -   21s
     0     0 1596.16767    0 1985 4037.00000 1596.16767  60.5%     -   23s
     0     0 1596.43903    0 2061 4037.00000 1596.43903  60.5%     -   23s
     0     0 1596.44805    0 2060 4037.00000 1596.44805  60.5%     -   23s
H    0     0                    3999.0000000 1596.44805  60.1%     -   28s
     0     0 1604.58053    0 2217 3999.00000 1604.58053  59.9%     -   28s
H    0     0                    3978.0000000 1604.58053  59.7%     -   28s
     0     0 1606.14398    0 2357 3978.00000 1606.14398  59.6%     -   31s
     0     0 1607.09568    0 2415 3978.00000 1607.09568  59.6%     -   33s
     0     0 1607.59414    0 2466 3978.00000 1607.59414  59.6%     -   35s
     0     0 1607.65665    0 2446 3978.00000 1607.65665  59.6%     -   36s
H    0     0                    3938.0000000 1607.65665  59.2%     -   43s
     0     0 1612.85043    0 2689 3938.00000 1612.85043  59.0%     -   43s
H    0     0                    3914.0000000 1612.85043  58.8%     -   47s
     0     0 1615.01325    0 2846 3914.00000 1615.01325  58.7%     -   47s
H    0     0                    3894.0000000 1615.01325  58.5%     -   50s
     0     0 1615.67560    0 2759 3894.00000 1615.67560  58.5%     -   51s
     0     0 1616.01933    0 2911 3894.00000 1616.01933  58.5%     -   54s
     0     0 1616.09047    0 2945 3894.00000 1616.09047  58.5%     -   56s
     0     0          -    0      3894.00000 1616.09047  58.5%     -   60s

Cutting planes:
  Gomory: 123
  Cover: 2281
  Implied bound: 416
  Clique: 803
  MIR: 96
  StrongCG: 16
  Flow cover: 227
  GUB cover: 9
  Zero half: 137
  Network: 1
  Relax-and-lift: 18

Explored 1 nodes (87026 simplex iterations) in 60.02 seconds
Thread count was 12 (of 12 available processors)

Solution count 10: 3894 3914 3938 ... 4161

Time limit reached
Best objective 3.894000000000e+03, best bound 1.617000000000e+03, gap 58.4746%
